32	0

0	2	2	5
3	1	3
4	1	4
9	2	6	8
9	2	6	8
2	2	7	9
5	2	10	11
3	1	9
2	2	10	11
4	1	12
7	2	13	14
2	2	13	14
5	2	15	17
3	3	15	16	17
9	2	18	20
9	2	18	20
9	2	18	20
5	2	19	21
10	1	24
10	1	21
3	1	22
1	2	23	24
7	2	25	27
5	2	25	26
9	1	29
5	1	27
3	2	28	29
10	1	32
6	1	30
1	1	31
1	1	32
0	0
